0 3044
5 3025
8 2966
12 2937
14 2923
35 2921
82 2920
87 2914
91 2908
94 2906
100 2895
115 2877
119 2867
120 2840
131 2831
137 2813
144 2811
150 2808
165 2790
180 2783
181 2777
192 2774
196 2762
214 2755
228 2753
270 2746
335 2740
727 2737
730 2736
765 2733
899 2730
932 2724
